(set-logic ALL)
(declare-const x String)
(declare-const y String)
(assert (str.in_re x (re.+ (re.* (str.to_re "aabb")))))
(assert (str.in_re y (str.to_re "aapp")))
(assert (= 8 (str.to_int x)))
(assert (= (str.len y) 12))
(check-sat)
